c Created with the Wolfram Language : www.wolfram.com
c 
p edge 100 992
e 1 2
e 1 5
e 4 5
e 2 6
e 3 7
e 6 7
e 5 8
e 6 8
e 6 9
e 7 10
e 9 10
e 2 11
e 4 11
e 1 12
e 5 12
e 6 12
e 2 13
e 7 13
e 3 15
e 6 15
e 8 15
e 2 16
e 4 16
e 5 16
e 12 16
e 4 17
e 13 17
e 7 18
e 11 18
e 15 18
e 4 19
e 6 19
e 9 19
e 16 19
e 2 20
e 4 20
e 7 20
e 8 20
e 10 20
e 4 21
e 7 21
e 5 22
e 9 22
e 11 22
e 19 22
e 1 23
e 4 23
e 13 23
e 21 23
e 22 23
e 8 24
e 10 24
e 13 24
e 17 24
e 19 24
e 23 24
e 1 25
e 6 25
e 8 25
e 1 26
e 6 26
e 13 26
e 22 26
e 3 27
e 7 27
e 5 28
e 6 28
e 10 28
e 13 28
e 15 28
e 25 28
e 2 29
e 6 29
e 10 29
e 12 29
e 17 29
e 18 29
e 21 29
e 28 29
e 1 30
e 2 30
e 8 30
e 9 30
e 10 30
e 23 30
e 3 31
e 6 31
e 8 31
e 18 31
e 26 31
e 4 32
e 8 32
e 18 32
e 28 32
e 31 32
e 1 33
e 3 33
e 5 33
e 10 33
e 23 33
e 11 34
e 12 34
e 21 34
e 22 34
e 28 34
e 3 35
e 8 35
e 9 35
e 25 35
e 27 35
e 31 35
e 1 36
e 4 36
e 5 36
e 6 36
e 8 36
e 12 36
e 13 36
e 18 36
e 20 36
e 27 36
e 29 36
e 5 37
e 18 37
e 23 37
e 24 37
e 1 39
e 3 39
e 11 39
e 18 39
e 25 39
e 36 39
e 9 40
e 14 40
e 15 40
e 18 40
e 23 40
e 28 40
e 4 41
e 15 41
e 35 41
e 3 42
e 4 42
e 10 42
e 18 42
e 19 42
e 24 42
e 25 42
e 32 42
e 36 42
e 39 42
e 1 43
e 6 43
e 9 43
e 13 43
e 17 43
e 20 43
e 24 43
e 27 43
e 30 43
e 31 43
e 32 43
e 37 43
e 8 44
e 17 44
e 18 44
e 21 44
e 27 44
e 29 44
e 36 44
e 38 44
e 40 44
e 1 45
e 11 45
e 13 45
e 16 45
e 29 45
e 30 45
e 32 45
e 39 45
e 40 45
e 44 45
e 5 46
e 12 46
e 14 46
e 15 46
e 21 46
e 22 46
e 28 46
e 29 46
e 30 46
e 33 46
e 36 46
e 45 46
e 6 47
e 10 47
e 13 47
e 17 47
e 20 47
e 24 47
e 34 47
e 37 47
e 38 47
e 41 47
e 7 48
e 11 48
e 15 48
e 22 48
e 26 48
e 30 48
e 31 48
e 41 48
e 45 48
e 46 48
e 17 49
e 18 49
e 19 49
e 22 49
e 24 49
e 26 49
e 29 49
e 33 49
e 42 49
e 45 49
e 46 49
e 48 49
e 20 50
e 21 50
e 23 50
e 25 50
e 28 50
e 31 50
e 41 50
e 42 50
e 45 50
e 4 51
e 12 51
e 17 51
e 19 51
e 23 51
e 27 51
e 29 51
e 38 51
e 43 51
e 2 52
e 11 52
e 13 52
e 18 52
e 19 52
e 22 52
e 23 52
e 24 52
e 30 52
e 43 52
e 44 52
e 47 52
e 50 52
e 3 53
e 5 53
e 9 53
e 13 53
e 19 53
e 21 53
e 22 53
e 40 53
e 45 53
e 47 53
e 48 53
e 5 54
e 16 54
e 19 54
e 20 54
e 24 54
e 27 54
e 41 54
e 46 54
e 48 54
e 51 54
e 6 55
e 9 55
e 15 55
e 19 55
e 26 55
e 32 55
e 41 55
e 42 55
e 47 55
e 49 55
e 54 55
e 5 56
e 19 56
e 23 56
e 27 56
e 30 56
e 33 56
e 36 56
e 37 56
e 48 56
e 52 56
e 55 56
e 7 57
e 13 57
e 17 57
e 19 57
e 25 57
e 33 57
e 37 57
e 48 57
e 6 58
e 7 58
e 15 58
e 16 58
e 45 58
e 55 58
e 13 59
e 15 59
e 20 59
e 23 59
e 25 59
e 28 59
e 29 59
e 30 59
e 35 59
e 38 59
e 39 59
e 54 59
e 58 59
e 6 60
e 8 60
e 30 60
e 35 60
e 46 60
e 47 60
e 50 60
e 52 60
e 54 60
e 56 60
e 3 61
e 9 61
e 15 61
e 28 61
e 31 61
e 35 61
e 39 61
e 43 61
e 57 61
e 59 61
e 2 62
e 7 62
e 10 62
e 11 62
e 12 62
e 16 62
e 21 62
e 22 62
e 24 62
e 26 62
e 31 62
e 32 62
e 38 62
e 41 62
e 47 62
e 49 62
e 55 62
e 12 63
e 13 63
e 20 63
e 26 63
e 35 63
e 38 63
e 41 63
e 42 63
e 43 63
e 48 63
e 50 63
e 3 64
e 6 64
e 11 64
e 17 64
e 25 64
e 26 64
e 31 64
e 35 64
e 37 64
e 40 64
e 43 64
e 54 64
e 62 64
e 12 65
e 18 65
e 20 65
e 31 65
e 34 65
e 35 65
e 47 65
e 51 65
e 57 65
e 61 65
e 63 65
e 9 66
e 17 66
e 23 66
e 27 66
e 31 66
e 49 66
e 53 66
e 55 66
e 56 66
e 10 67
e 16 67
e 28 67
e 31 67
e 40 67
e 42 67
e 47 67
e 58 67
e 60 67
e 62 67
e 10 68
e 11 68
e 16 68
e 18 68
e 19 68
e 36 68
e 38 68
e 47 68
e 60 68
e 64 68
e 9 69
e 20 69
e 26 69
e 27 69
e 45 69
e 54 69
e 55 69
e 56 69
e 57 69
e 58 69
e 63 69
e 66 69
e 2 70
e 3 70
e 5 70
e 10 70
e 14 70
e 15 70
e 25 70
e 33 70
e 34 70
e 36 70
e 40 70
e 41 70
e 43 70
e 47 70
e 48 70
e 50 70
e 54 70
e 60 70
e 62 70
e 66 70
e 4 71
e 8 71
e 12 71
e 13 71
e 14 71
e 15 71
e 20 71
e 24 71
e 29 71
e 39 71
e 42 71
e 46 71
e 59 71
e 66 71
e 3 72
e 4 72
e 6 72
e 7 72
e 31 72
e 33 72
e 37 72
e 38 72
e 40 72
e 44 72
e 47 72
e 48 72
e 61 72
e 1 73
e 4 73
e 6 73
e 21 73
e 22 73
e 23 73
e 25 73
e 31 73
e 32 73
e 44 73
e 45 73
e 48 73
e 56 73
e 72 73
e 3 74
e 5 74
e 9 74
e 11 74
e 19 74
e 25 74
e 26 74
e 30 74
e 34 74
e 38 74
e 39 74
e 40 74
e 41 74
e 48 74
e 51 74
e 55 74
e 57 74
e 4 75
e 15 75
e 20 75
e 33 75
e 36 75
e 44 75
e 46 75
e 47 75
e 48 75
e 53 75
e 67 75
e 69 75
e 1 76
e 15 76
e 20 76
e 21 76
e 34 76
e 36 76
e 40 76
e 41 76
e 43 76
e 44 76
e 53 76
e 56 76
e 58 76
e 62 76
e 69 76
e 70 76
e 72 76
e 6 77
e 11 77
e 13 77
e 14 77
e 17 77
e 19 77
e 23 77
e 25 77
e 27 77
e 32 77
e 38 77
e 40 77
e 41 77
e 62 77
e 63 77
e 64 77
e 68 77
e 70 77
e 74 77
e 3 78
e 9 78
e 16 78
e 19 78
e 24 78
e 28 78
e 31 78
e 34 78
e 36 78
e 43 78
e 50 78
e 52 78
e 54 78
e 58 78
e 59 78
e 60 78
e 61 78
e 68 78
e 73 78
e 74 78
e 14 79
e 17 79
e 19 79
e 23 79
e 24 79
e 25 79
e 29 79
e 33 79
e 40 79
e 44 79
e 45 79
e 60 79
e 63 79
e 68 79
e 2 80
e 4 80
e 9 80
e 13 80
e 32 80
e 38 80
e 40 80
e 41 80
e 43 80
e 47 80
e 54 80
e 55 80
e 57 80
e 59 80
e 60 80
e 66 80
e 3 81
e 5 81
e 6 81
e 8 81
e 11 81
e 12 81
e 14 81
e 19 81
e 22 81
e 24 81
e 42 81
e 44 81
e 45 81
e 46 81
e 47 81
e 49 81
e 52 81
e 60 81
e 64 81
e 65 81
e 67 81
e 71 81
e 3 82
e 14 82
e 16 82
e 20 82
e 25 82
e 29 82
e 34 82
e 35 82
e 37 82
e 51 82
e 58 82
e 59 82
e 62 82
e 63 82
e 66 82
e 68 82
e 70 82
e 1 83
e 2 83
e 4 83
e 5 83
e 7 83
e 8 83
e 11 83
e 12 83
e 13 83
e 14 83
e 19 83
e 20 83
e 24 83
e 26 83
e 44 83
e 46 83
e 48 83
e 62 83
e 64 83
e 65 83
e 68 83
e 74 83
e 75 83
e 79 83
e 80 83
e 8 84
e 11 84
e 14 84
e 23 84
e 29 84
e 31 84
e 58 84
e 59 84
e 60 84
e 61 84
e 63 84
e 66 84
e 67 84
e 68 84
e 70 84
e 71 84
e 72 84
e 1 85
e 4 85
e 8 85
e 10 85
e 11 85
e 20 85
e 21 85
e 23 85
e 32 85
e 33 85
e 37 85
e 41 85
e 44 85
e 55 85
e 56 85
e 59 85
e 62 85
e 63 85
e 70 85
e 71 85
e 75 85
e 77 85
e 78 85
e 79 85
e 82 85
e 83 85
e 4 86
e 7 86
e 19 86
e 21 86
e 22 86
e 27 86
e 35 86
e 41 86
e 44 86
e 55 86
e 59 86
e 69 86
e 84 86
e 85 86
e 5 87
e 9 87
e 22 87
e 43 87
e 52 87
e 68 87
e 69 87
e 70 87
e 71 87
e 77 87
e 80 87
e 81 87
e 85 87
e 86 87
e 7 88
e 29 88
e 31 88
e 36 88
e 38 88
e 46 88
e 51 88
e 52 88
e 54 88
e 57 88
e 60 88
e 62 88
e 63 88
e 64 88
e 66 88
e 70 88
e 71 88
e 77 88
e 79 88
e 80 88
e 84 88
e 86 88
e 7 89
e 10 89
e 14 89
e 16 89
e 18 89
e 21 89
e 23 89
e 31 89
e 39 89
e 46 89
e 50 89
e 59 89
e 66 89
e 69 89
e 71 89
e 87 89
e 26 90
e 27 90
e 35 90
e 39 90
e 44 90
e 46 90
e 49 90
e 51 90
e 53 90
e 57 90
e 59 90
e 60 90
e 70 90
e 71 90
e 79 90
e 80 90
e 83 90
e 85 90
e 3 91
e 5 91
e 10 91
e 30 91
e 49 91
e 51 91
e 53 91
e 56 91
e 58 91
e 70 91
e 71 91
e 72 91
e 1 92
e 6 92
e 13 92
e 28 92
e 30 92
e 33 92
e 34 92
e 38 92
e 39 92
e 41 92
e 42 92
e 48 92
e 49 92
e 66 92
e 69 92
e 77 92
e 79 92
e 87 92
e 1 93
e 10 93
e 15 93
e 23 93
e 24 93
e 28 93
e 48 93
e 51 93
e 53 93
e 59 93
e 60 93
e 61 93
e 62 93
e 64 93
e 73 93
e 78 93
e 87 93
e 2 94
e 8 94
e 16 94
e 19 94
e 20 94
e 25 94
e 29 94
e 44 94
e 45 94
e 51 94
e 68 94
e 72 94
e 73 94
e 77 94
e 78 94
e 80 94
e 81 94
e 82 94
e 9 95
e 13 95
e 16 95
e 20 95
e 25 95
e 26 95
e 30 95
e 41 95
e 42 95
e 49 95
e 52 95
e 55 95
e 56 95
e 64 95
e 65 95
e 75 95
e 78 95
e 79 95
e 80 95
e 83 95
e 87 95
e 89 95
e 7 96
e 10 96
e 12 96
e 18 96
e 19 96
e 23 96
e 26 96
e 27 96
e 28 96
e 32 96
e 38 96
e 42 96
e 44 96
e 46 96
e 54 96
e 56 96
e 81 96
e 84 96
e 93 96
e 3 97
e 10 97
e 11 97
e 20 97
e 26 97
e 34 97
e 35 97
e 36 97
e 40 97
e 41 97
e 43 97
e 47 97
e 58 97
e 64 97
e 65 97
e 69 97
e 74 97
e 79 97
e 83 97
e 84 97
e 1 98
e 4 98
e 5 98
e 11 98
e 13 98
e 19 98
e 21 98
e 42 98
e 45 98
e 48 98
e 50 98
e 63 98
e 65 98
e 68 98
e 71 98
e 73 98
e 88 98
e 1 99
e 2 99
e 11 99
e 13 99
e 18 99
e 20 99
e 21 99
e 24 99
e 29 99
e 30 99
e 38 99
e 46 99
e 56 99
e 58 99
e 62 99
e 69 99
e 70 99
e 71 99
e 72 99
e 78 99
e 88 99
e 89 99
e 98 99
e 3 100
e 4 100
e 7 100
e 17 100
e 21 100
e 24 100
e 32 100
e 33 100
e 35 100
e 45 100
e 50 100
e 61 100
e 66 100
e 76 100
e 79 100
e 84 100
e 92 100
e 94 100
e 98 100
